(set-option :produce-unsat-cores true) ; enable generation of unsat cores
(set-option :produce-models true) ; enable model generation
(set-logic ALL)
(declare-sort var2882 0)
(declare-sort var388 0)
(declare-sort var3910 0)
(declare-sort var3439 0)
(declare-sort var1761 0)
(declare-sort var527 0)
(declare-sort var1934 0)
(declare-sort void 0)
(declare-sort Iterator 0)
(declare-sort ClassObject 0)
(declare-fun usingBaseJarName/-2133246527 (var3439) Bool)
(declare-fun cast-from-var2882-to-var3439 (var2882) var3439)
(declare-fun dbVendor/1029604219 (var2882) String)
(declare-fun var1761-init () var1761)
(declare-fun getConfig/-1194828243 (var3439) var527)
(declare-fun descriptorDir/2019956101 (var527) var1761)
(declare-fun String-init () String)
(define-fun <init>/1968657023 () String "")
(define-fun append/672562846 ((s String) (tail String)) String (str.++ s tail))
(define-fun toString/-2075883882 ((s String)) String s)
(declare-fun <init>/-1833447926 (var1761 var1761 String) void)
(declare-fun exists/1072868559 (var1761) Bool)
(declare-fun put/1981026245 (var388 var1934 var1934) var1934)
(declare-fun cast-from-String-to-var1934 (String) var1934)
(declare-fun cast-from-var1761-to-var1934 (var1761) var1934)
(declare-fun getPath/-1385219261 (var1761) String)
(declare-fun log/1006881114 (var3439 String Int) void)
(declare-fun newCMP/1029604219 (var2882) Bool)
(declare-const null-var2882 var2882)
(declare-const null-var388 var388)
(declare-const null-String String)
(declare-const var1170 var2882) ; Statement: r0 := @this: com.google.javascript.jscomp.jarjar.org.apache.tools.ant.taskdefs.optional.ejb.WebsphereDeploymentTool 
(assert (not (= var1170 null-var2882)))
(declare-const var2563 var388) ; Statement: r59 := @parameter0: java.util.Hashtable 
(assert (not (= var2563 null-var388)))
(declare-const var3508 String) ; Statement: r1 := @parameter1: java.lang.String 
(assert (not (= var3508 null-String)))
(assert true)
(define-const var2449 Bool (usingBaseJarName/-2133246527 (cast-from-var2882-to-var3439 var1170))) ; Statement: $z0 = virtualinvoke r0.<com.google.javascript.jscomp.jarjar.org.apache.tools.ant.taskdefs.optional.ejb.WebsphereDeploymentTool: boolean usingBaseJarName()>() 
 ; Statement: if $z0 == 0 goto $r67 = r1 
(assert (not (= (ite var2449 1 0) 0))) ; Negate: Cond: $z0 == 0  
(define-const var2910 String "") ; Statement: $r67 = "" 
 ; Statement: goto [?= r2 = $r67] 
(assert true) ; Non Conditional
(define-const var3365 String var2910) ; Statement: r2 = $r67 
(define-const var1890 String (dbVendor/1029604219 var1170)) ; Statement: $r3 = r0.<com.google.javascript.jscomp.jarjar.org.apache.tools.ant.taskdefs.optional.ejb.WebsphereDeploymentTool: java.lang.String dbVendor> 
 ; Statement: if $r3 != null goto $r4 = new java.lang.StringBuilder 
(assert (not (not (= var1890 null-String)))) ; Negate: Cond: $r3 != null  
(define-const var378 String "") ; Statement: $r68 = "" 
 ; Statement: goto [?= r8 = $r68] 
(assert true) ; Non Conditional
(define-const var412 String var378) ; Statement: r8 = $r68 
(define-const var820 var1761 var1761-init) ; Statement: $r9 = new java.io.File 
(assert true)
(define-const var2255 var527 (getConfig/-1194828243 (cast-from-var2882-to-var3439 var1170))) ; Statement: $r10 = virtualinvoke r0.<com.google.javascript.jscomp.jarjar.org.apache.tools.ant.taskdefs.optional.ejb.WebsphereDeploymentTool: com.google.javascript.jscomp.jarjar.org.apache.tools.ant.taskdefs.optional.ejb.EjbJar$Config getConfig()>() 
(define-const var291 var1761 (descriptorDir/2019956101 var2255)) ; Statement: $r12 = $r10.<com.google.javascript.jscomp.jarjar.org.apache.tools.ant.taskdefs.optional.ejb.EjbJar$Config: java.io.File descriptorDir> 
(define-const var1805 String String-init) ; Statement: $r11 = new java.lang.StringBuilder 
(assert true)
;(assert (<init>/1968657023 var1805)) ; Statement: specialinvoke $r11.<java.lang.StringBuilder: void <init>()>() 
(declare-const var1805!1 String)
(assert (= var1805!1 ""))
(assert true)
(define-const var1561 String (append/672562846 var1805!1 var3365)) ; Statement: $r13 = virtualinvoke $r11.<java.lang.StringBuilder: java.lang.StringBuilder append(java.lang.String)>(r2) 
(declare-const var1805!2 String)
(assert (= var1805!2 (str.++ var1805!1 var3365)))
(assert true)
(define-const var2411 String (append/672562846 var1561 "ibm-ejb-jar-ext.xmi")) ; Statement: $r14 = virtualinvoke $r13.<java.lang.StringBuilder: java.lang.StringBuilder append(java.lang.String)>("ibm-ejb-jar-ext.xmi") 
(declare-const var1561!1 String)
(assert (= var1561!1 (str.++ var1561 "ibm-ejb-jar-ext.xmi")))
(assert true)
(define-const var1970 String (toString/-2075883882 var2411)) ; Statement: $r15 = virtualinvoke $r14.<java.lang.StringBuilder: java.lang.String toString()>() 
(assert true)
;(assert (<init>/-1833447926 var820 var291 var1970)) ; Statement: specialinvoke $r9.<java.io.File: void <init>(java.io.File,java.lang.String)>($r12, $r15) 

(declare-const var820!1 var1761)
(declare-const var291!1 var1761)
(declare-const var1970!1 String)
(assert true)
(define-const var589 Bool (exists/1072868559 var820!1)) ; Statement: $z1 = virtualinvoke $r9.<java.io.File: boolean exists()>() 
 ; Statement: if $z1 == 0 goto $r16 = new java.lang.StringBuilder 
(assert (not (= (ite var589 1 0) 0))) ; Negate: Cond: $z1 == 0  
(assert true)
;(assert (put/1981026245 var2563 (cast-from-String-to-var1934 "META-INF/ibm-ejb-jar-ext.xmi") (cast-from-var1761-to-var1934 var820!1))) ; Statement: virtualinvoke r59.<java.util.Hashtable: java.lang.Object put(java.lang.Object,java.lang.Object)>("META-INF/ibm-ejb-jar-ext.xmi", $r9) 

(declare-const var2563!1 var388)
(declare-const var2612 String)
(declare-const var820!2 var1761)
 ; Statement: goto [?= $r21 = new java.io.File] 
(assert true) ; Non Conditional
(define-const var252 var1761 var1761-init) ; Statement: $r21 = new java.io.File 
(assert true)
(define-const var619 var527 (getConfig/-1194828243 (cast-from-var2882-to-var3439 var1170))) ; Statement: $r22 = virtualinvoke r0.<com.google.javascript.jscomp.jarjar.org.apache.tools.ant.taskdefs.optional.ejb.WebsphereDeploymentTool: com.google.javascript.jscomp.jarjar.org.apache.tools.ant.taskdefs.optional.ejb.EjbJar$Config getConfig()>() 
(define-const var1772 var1761 (descriptorDir/2019956101 var619)) ; Statement: $r24 = $r22.<com.google.javascript.jscomp.jarjar.org.apache.tools.ant.taskdefs.optional.ejb.EjbJar$Config: java.io.File descriptorDir> 
(define-const var1947 String String-init) ; Statement: $r23 = new java.lang.StringBuilder 
(assert true)
;(assert (<init>/1968657023 var1947)) ; Statement: specialinvoke $r23.<java.lang.StringBuilder: void <init>()>() 
(declare-const var1947!1 String)
(assert (= var1947!1 ""))
(assert true)
(define-const var2921 String (append/672562846 var1947!1 var3365)) ; Statement: $r25 = virtualinvoke $r23.<java.lang.StringBuilder: java.lang.StringBuilder append(java.lang.String)>(r2) 
(declare-const var1947!2 String)
(assert (= var1947!2 (str.++ var1947!1 var3365)))
(assert true)
(define-const var107 String (append/672562846 var2921 "ibm-ejb-jar-bnd.xmi")) ; Statement: $r26 = virtualinvoke $r25.<java.lang.StringBuilder: java.lang.StringBuilder append(java.lang.String)>("ibm-ejb-jar-bnd.xmi") 
(declare-const var2921!1 String)
(assert (= var2921!1 (str.++ var2921 "ibm-ejb-jar-bnd.xmi")))
(assert true)
(define-const var2973 String (toString/-2075883882 var107)) ; Statement: $r27 = virtualinvoke $r26.<java.lang.StringBuilder: java.lang.String toString()>() 
(assert true)
;(assert (<init>/-1833447926 var252 var1772 var2973)) ; Statement: specialinvoke $r21.<java.io.File: void <init>(java.io.File,java.lang.String)>($r24, $r27) 

(declare-const var252!1 var1761)
(declare-const var1772!1 var1761)
(declare-const var2973!1 String)
(assert true)
(define-const var2575 Bool (exists/1072868559 var252!1)) ; Statement: $z2 = virtualinvoke $r21.<java.io.File: boolean exists()>() 
 ; Statement: if $z2 == 0 goto $r28 = new java.lang.StringBuilder 
(assert (= (ite var2575 1 0) 0)) ; Cond: $z2 == 0 
(define-const var3527 String String-init) ; Statement: $r28 = new java.lang.StringBuilder 
(assert true)
;(assert (<init>/1968657023 var3527)) ; Statement: specialinvoke $r28.<java.lang.StringBuilder: void <init>()>() 
(declare-const var3527!1 String)
(assert (= var3527!1 ""))
(assert true)
(define-const var3384 String (append/672562846 var3527!1 "Unable to locate websphere bindings. It was expected to be in ")) ; Statement: $r30 = virtualinvoke $r28.<java.lang.StringBuilder: java.lang.StringBuilder append(java.lang.String)>("Unable to locate websphere bindings. It was expected to be in ") 
(declare-const var3527!2 String)
(assert (= var3527!2 (str.++ var3527!1 "Unable to locate websphere bindings. It was expected to be in ")))
(assert true)
(define-const var3212 String (getPath/-1385219261 var252!1)) ; Statement: $r29 = virtualinvoke $r21.<java.io.File: java.lang.String getPath()>() 
(assert true)
(define-const var3826 String (append/672562846 var3384 var3212)) ; Statement: $r31 = virtualinvoke $r30.<java.lang.StringBuilder: java.lang.StringBuilder append(java.lang.String)>($r29) 
(declare-const var3384!1 String)
(assert (= var3384!1 (str.++ var3384 var3212)))
(assert true)
(define-const var2441 String (toString/-2075883882 var3826)) ; Statement: $r32 = virtualinvoke $r31.<java.lang.StringBuilder: java.lang.String toString()>() 
(assert true)
;(assert (log/1006881114 (cast-from-var2882-to-var3439 var1170) var2441 3)) ; Statement: virtualinvoke r0.<com.google.javascript.jscomp.jarjar.org.apache.tools.ant.taskdefs.optional.ejb.WebsphereDeploymentTool: void log(java.lang.String,int)>($r32, 3) 

(declare-const var1170!1 var2882)
(declare-const var2441!1 String)
(declare-const var984 Int)
(assert true) ; Non Conditional
(define-const var2574 Bool (newCMP/1029604219 var1170!1)) ; Statement: $z3 = r0.<com.google.javascript.jscomp.jarjar.org.apache.tools.ant.taskdefs.optional.ejb.WebsphereDeploymentTool: boolean newCMP> 
 ; Statement: if $z3 != 0 goto $r33 = new java.io.File 
(assert (not (not (= (ite var2574 1 0) 0)))) ; Negate: Cond: $z3 != 0  
(assert true)
;(assert (log/1006881114 (cast-from-var2882-to-var3439 var1170!1) "The old method for locating CMP files has been DEPRECATED." 3)) ; Statement: virtualinvoke r0.<com.google.javascript.jscomp.jarjar.org.apache.tools.ant.taskdefs.optional.ejb.WebsphereDeploymentTool: void log(java.lang.String,int)>("The old method for locating CMP files has been DEPRECATED.", 3) 

(declare-const var1170!2 var2882)
(declare-const var3801 String)
(declare-const var984!1 Int)
(assert true)
;(assert (log/1006881114 (cast-from-var2882-to-var3439 var1170!2) "Please adjust your websphere descriptor and set newCMP=\u0022true\u0022 to use the new CMP descriptor inclusion mechanism. " 3)) ; Statement: virtualinvoke r0.<com.google.javascript.jscomp.jarjar.org.apache.tools.ant.taskdefs.optional.ejb.WebsphereDeploymentTool: void log(java.lang.String,int)>("Please adjust your websphere descriptor and set newCMP=\"true\" to use the new CMP descriptor inclusion mechanism. ", 3) 

(declare-const var1170!3 var2882)
(declare-const var3607 String)
(declare-const var984!2 Int)
 ; Statement: goto [?= return] 
(assert true) ; Non Conditional
 ; Statement: return 
(check-sat)
(get-model)
(get-unsat-core)
; {usingBaseJarName/-2133246527=([com.google.javascript.jscomp.jarjar.org.apache.tools.ant.taskdefs.optional.ejb.GenericDeploymentTool], boolean), cast-from-var2882-to-var3439=([com.google.javascript.jscomp.jarjar.org.apache.tools.ant.taskdefs.optional.ejb.WebsphereDeploymentTool], com.google.javascript.jscomp.jarjar.org.apache.tools.ant.taskdefs.optional.ejb.GenericDeploymentTool), dbVendor/1029604219=([com.google.javascript.jscomp.jarjar.org.apache.tools.ant.taskdefs.optional.ejb.WebsphereDeploymentTool], java.lang.String), var1761-init=([], java.io.File), getConfig/-1194828243=([com.google.javascript.jscomp.jarjar.org.apache.tools.ant.taskdefs.optional.ejb.GenericDeploymentTool], com.google.javascript.jscomp.jarjar.org.apache.tools.ant.taskdefs.optional.ejb.EjbJar$Config), descriptorDir/2019956101=([com.google.javascript.jscomp.jarjar.org.apache.tools.ant.taskdefs.optional.ejb.EjbJar$Config], java.io.File), String-init=([], java.lang.StringBuilder), <init>/1968657023=([java.lang.StringBuilder], void), append/672562846=([java.lang.StringBuilder, java.lang.String], java.lang.StringBuilder), toString/-2075883882=([java.lang.StringBuilder], java.lang.String), <init>/-1833447926=([java.io.File, java.io.File, java.lang.String], void), exists/1072868559=([java.io.File], boolean), put/1981026245=([java.util.Hashtable, java.lang.Object, java.lang.Object], java.lang.Object), cast-from-String-to-var1934=([java.lang.String], java.lang.Object), cast-from-var1761-to-var1934=([java.io.File], java.lang.Object), getPath/-1385219261=([java.io.File], java.lang.String), log/1006881114=([com.google.javascript.jscomp.jarjar.org.apache.tools.ant.taskdefs.optional.ejb.GenericDeploymentTool, java.lang.String, int], void), newCMP/1029604219=([com.google.javascript.jscomp.jarjar.org.apache.tools.ant.taskdefs.optional.ejb.WebsphereDeploymentTool], boolean)}
; {var2882=com.google.javascript.jscomp.jarjar.org.apache.tools.ant.taskdefs.optional.ejb.WebsphereDeploymentTool, var1170=r0, var388=java.util.Hashtable, var2563=r59, var3508=r1, var3910=null_type, var3439=com.google.javascript.jscomp.jarjar.org.apache.tools.ant.taskdefs.optional.ejb.GenericDeploymentTool, var2449=$z0, var2910=$r67, var3365=r2, var1890=$r3, var378=$r68, var412=r8, var1761=java.io.File, var820=$r9, var527=com.google.javascript.jscomp.jarjar.org.apache.tools.ant.taskdefs.optional.ejb.EjbJar$Config, var2255=$r10, var291=$r12, var1805=$r11, var1561=$r13, var2411=$r14, var1970=$r15, var589=$z1, var1934=java.lang.Object, var2612="META-INF/ibm-ejb-jar-ext.xmi", var252=$r21, var619=$r22, var1772=$r24, var1947=$r23, var2921=$r25, var107=$r26, var2973=$r27, var2575=$z2, var3527=$r28, var3384=$r30, var3212=$r29, var3826=$r31, var2441=$r32, var984=3, var2574=$z3, var3801="The old method for locating CMP files has been DEPRECATED.", var3607="Please adjust your websphere descriptor and set newCMP=\"true\" to use the new CMP descriptor inclusion mechanism. "}
; {com.google.javascript.jscomp.jarjar.org.apache.tools.ant.taskdefs.optional.ejb.WebsphereDeploymentTool=var2882, r0=var1170, java.util.Hashtable=var388, r59=var2563, r1=var3508, null_type=var3910, com.google.javascript.jscomp.jarjar.org.apache.tools.ant.taskdefs.optional.ejb.GenericDeploymentTool=var3439, $z0=var2449, $r67=var2910, r2=var3365, $r3=var1890, $r68=var378, r8=var412, java.io.File=var1761, $r9=var820, com.google.javascript.jscomp.jarjar.org.apache.tools.ant.taskdefs.optional.ejb.EjbJar$Config=var527, $r10=var2255, $r12=var291, $r11=var1805, $r13=var1561, $r14=var2411, $r15=var1970, $z1=var589, java.lang.Object=var1934, "META-INF/ibm-ejb-jar-ext.xmi"=var2612, $r21=var252, $r22=var619, $r24=var1772, $r23=var1947, $r25=var2921, $r26=var107, $r27=var2973, $z2=var2575, $r28=var3527, $r30=var3384, $r29=var3212, $r31=var3826, $r32=var2441, 3=var984, $z3=var2574, "The old method for locating CMP files has been DEPRECATED."=var3801, "Please adjust your websphere descriptor and set newCMP=\"true\" to use the new CMP descriptor inclusion mechanism. "=var3607}
;seq <java.lang.StringBuilder: void <init>()>;	<java.lang.StringBuilder: java.lang.StringBuilder append(java.lang.String)>;	<java.lang.StringBuilder: java.lang.StringBuilder append(java.lang.String)>;	<java.lang.StringBuilder: java.lang.String toString()>;	<java.lang.StringBuilder: void <init>()>;	<java.lang.StringBuilder: java.lang.StringBuilder append(java.lang.String)>;	<java.lang.StringBuilder: java.lang.StringBuilder append(java.lang.String)>;	<java.lang.StringBuilder: java.lang.String toString()>;	<java.lang.StringBuilder: void <init>()>;	<java.lang.StringBuilder: java.lang.StringBuilder append(java.lang.String)>;	<java.lang.StringBuilder: java.lang.StringBuilder append(java.lang.String)>;	<java.lang.StringBuilder: java.lang.String toString()>
;cnt {"<java.lang.StringBuilder: void <init>()>": 3,"<java.lang.StringBuilder: java.lang.StringBuilder append(java.lang.String)>": 6,"<java.lang.StringBuilder: java.lang.String toString()>": 3}
;stmts r0 := @this: com.google.javascript.jscomp.jarjar.org.apache.tools.ant.taskdefs.optional.ejb.WebsphereDeploymentTool;	r59 := @parameter0: java.util.Hashtable;	r1 := @parameter1: java.lang.String;	$z0 = virtualinvoke r0.<com.google.javascript.jscomp.jarjar.org.apache.tools.ant.taskdefs.optional.ejb.WebsphereDeploymentTool: boolean usingBaseJarName()>();	if $z0 == 0 goto $r67 = r1;	$r67 = "";	goto [?= r2 = $r67];	r2 = $r67;	$r3 = r0.<com.google.javascript.jscomp.jarjar.org.apache.tools.ant.taskdefs.optional.ejb.WebsphereDeploymentTool: java.lang.String dbVendor>;	if $r3 != null goto $r4 = new java.lang.StringBuilder;	$r68 = "";	goto [?= r8 = $r68];	r8 = $r68;	$r9 = new java.io.File;	$r10 = virtualinvoke r0.<com.google.javascript.jscomp.jarjar.org.apache.tools.ant.taskdefs.optional.ejb.WebsphereDeploymentTool: com.google.javascript.jscomp.jarjar.org.apache.tools.ant.taskdefs.optional.ejb.EjbJar$Config getConfig()>();	$r12 = $r10.<com.google.javascript.jscomp.jarjar.org.apache.tools.ant.taskdefs.optional.ejb.EjbJar$Config: java.io.File descriptorDir>;	$r11 = new java.lang.StringBuilder;	specialinvoke $r11.<java.lang.StringBuilder: void <init>()>();	$r13 = virtualinvoke $r11.<java.lang.StringBuilder: java.lang.StringBuilder append(java.lang.String)>(r2);	$r14 = virtualinvoke $r13.<java.lang.StringBuilder: java.lang.StringBuilder append(java.lang.String)>("ibm-ejb-jar-ext.xmi");	$r15 = virtualinvoke $r14.<java.lang.StringBuilder: java.lang.String toString()>();	specialinvoke $r9.<java.io.File: void <init>(java.io.File,java.lang.String)>($r12, $r15);	$z1 = virtualinvoke $r9.<java.io.File: boolean exists()>();	if $z1 == 0 goto $r16 = new java.lang.StringBuilder;	virtualinvoke r59.<java.util.Hashtable: java.lang.Object put(java.lang.Object,java.lang.Object)>("META-INF/ibm-ejb-jar-ext.xmi", $r9);	goto [?= $r21 = new java.io.File];	$r21 = new java.io.File;	$r22 = virtualinvoke r0.<com.google.javascript.jscomp.jarjar.org.apache.tools.ant.taskdefs.optional.ejb.WebsphereDeploymentTool: com.google.javascript.jscomp.jarjar.org.apache.tools.ant.taskdefs.optional.ejb.EjbJar$Config getConfig()>();	$r24 = $r22.<com.google.javascript.jscomp.jarjar.org.apache.tools.ant.taskdefs.optional.ejb.EjbJar$Config: java.io.File descriptorDir>;	$r23 = new java.lang.StringBuilder;	specialinvoke $r23.<java.lang.StringBuilder: void <init>()>();	$r25 = virtualinvoke $r23.<java.lang.StringBuilder: java.lang.StringBuilder append(java.lang.String)>(r2);	$r26 = virtualinvoke $r25.<java.lang.StringBuilder: java.lang.StringBuilder append(java.lang.String)>("ibm-ejb-jar-bnd.xmi");	$r27 = virtualinvoke $r26.<java.lang.StringBuilder: java.lang.String toString()>();	specialinvoke $r21.<java.io.File: void <init>(java.io.File,java.lang.String)>($r24, $r27);	$z2 = virtualinvoke $r21.<java.io.File: boolean exists()>();	if $z2 == 0 goto $r28 = new java.lang.StringBuilder;	$r28 = new java.lang.StringBuilder;	specialinvoke $r28.<java.lang.StringBuilder: void <init>()>();	$r30 = virtualinvoke $r28.<java.lang.StringBuilder: java.lang.StringBuilder append(java.lang.String)>("Unable to locate websphere bindings. It was expected to be in ");	$r29 = virtualinvoke $r21.<java.io.File: java.lang.String getPath()>();	$r31 = virtualinvoke $r30.<java.lang.StringBuilder: java.lang.StringBuilder append(java.lang.String)>($r29);	$r32 = virtualinvoke $r31.<java.lang.StringBuilder: java.lang.String toString()>();	virtualinvoke r0.<com.google.javascript.jscomp.jarjar.org.apache.tools.ant.taskdefs.optional.ejb.WebsphereDeploymentTool: void log(java.lang.String,int)>($r32, 3);	$z3 = r0.<com.google.javascript.jscomp.jarjar.org.apache.tools.ant.taskdefs.optional.ejb.WebsphereDeploymentTool: boolean newCMP>;	if $z3 != 0 goto $r33 = new java.io.File;	virtualinvoke r0.<com.google.javascript.jscomp.jarjar.org.apache.tools.ant.taskdefs.optional.ejb.WebsphereDeploymentTool: void log(java.lang.String,int)>("The old method for locating CMP files has been DEPRECATED.", 3);	virtualinvoke r0.<com.google.javascript.jscomp.jarjar.org.apache.tools.ant.taskdefs.optional.ejb.WebsphereDeploymentTool: void log(java.lang.String,int)>("Please adjust your websphere descriptor and set newCMP=\"true\" to use the new CMP descriptor inclusion mechanism. ", 3);	goto [?= return];	return
;block_num 11